(set-info :category "industrial")
(set-info :status sat)
(declare-fun x02 () (_ BitVec 8))
(declare-fun x03 () (_ BitVec 8))
(declare-fun x05 () (_ BitVec 8))
(declare-fun x08 () (_ BitVec 8))
(declare-fun x10 () (_ BitVec 8))
(declare-fun x12 () (_ BitVec 8))
(declare-fun x14 () (_ BitVec 8))
(declare-fun x15 () (_ BitVec 8))
(declare-fun x16 () (_ BitVec 8))
(declare-fun x22 () (_ BitVec 8))
(declare-fun x23 () (_ BitVec 8))
(declare-fun x24 () (_ BitVec 8))
(declare-fun x27 () (_ BitVec 8))
(declare-fun x28 () (_ BitVec 8))
(declare-fun x30 () (_ BitVec 8))
(declare-fun x32 () (_ BitVec 8))
(declare-fun x33 () (_ BitVec 8))
(declare-fun x34 () (_ BitVec 8))
(declare-fun x35 () (_ BitVec 8))
(declare-fun x38 () (_ BitVec 8))
(declare-fun x40 () (_ BitVec 8))
(declare-fun x41 () (_ BitVec 8))
(declare-fun x42 () (_ BitVec 8))
(declare-fun x43 () (_ BitVec 8))
(declare-fun x44 () (_ BitVec 8))
(declare-fun x45 () (_ BitVec 8))
(declare-fun x46 () (_ BitVec 8))
(declare-fun x47 () (_ BitVec 8))
(declare-fun x51 () (_ BitVec 8))
(declare-fun x53 () (_ BitVec 8))
(declare-fun x56 () (_ BitVec 8))
(declare-fun x58 () (_ BitVec 8))
(declare-fun x61 () (_ BitVec 8))
(declare-fun x63 () (_ BitVec 8))
(declare-fun x64 () (_ BitVec 8))
(declare-fun x66 () (_ BitVec 8))
(declare-fun x67 () (_ BitVec 8))
(declare-fun x68 () (_ BitVec 8))
(declare-fun x70 () (_ BitVec 8))
(declare-fun x72 () (_ BitVec 8))
(declare-fun x73 () (_ BitVec 8))
(declare-fun x75 () (_ BitVec 8))
(declare-fun x76 () (_ BitVec 8))
(declare-fun x78 () (_ BitVec 8))
(declare-fun x80 () (_ BitVec 8))
(declare-fun x82 () (_ BitVec 8))
(declare-fun x84 () (_ BitVec 8))
(declare-fun x88 () (_ BitVec 8))
(assert (bvult x02 (_ bv9 8)))
(assert (bvult x03 (_ bv9 8)))
(assert (bvult x05 (_ bv9 8)))
(assert (bvult x08 (_ bv9 8)))
(assert (bvult x10 (_ bv9 8)))
(assert (bvult x12 (_ bv9 8)))
(assert (bvult x14 (_ bv9 8)))
(assert (bvult x15 (_ bv9 8)))
(assert (bvult x16 (_ bv9 8)))
(assert (bvult x22 (_ bv9 8)))
(assert (bvult x23 (_ bv9 8)))
(assert (bvult x24 (_ bv9 8)))
(assert (bvult x27 (_ bv9 8)))
(assert (bvult x28 (_ bv9 8)))
(assert (bvult x30 (_ bv9 8)))
(assert (bvult x32 (_ bv9 8)))
(assert (bvult x33 (_ bv9 8)))
(assert (bvult x34 (_ bv9 8)))
(assert (bvult x35 (_ bv9 8)))
(assert (bvult x38 (_ bv9 8)))
(assert (bvult x40 (_ bv9 8)))
(assert (bvult x41 (_ bv9 8)))
(assert (bvult x42 (_ bv9 8)))
(assert (bvult x43 (_ bv9 8)))
(assert (bvult x44 (_ bv9 8)))
(assert (bvult x45 (_ bv9 8)))
(assert (bvult x46 (_ bv9 8)))
(assert (bvult x47 (_ bv9 8)))
(assert (bvult x51 (_ bv9 8)))
(assert (bvult x53 (_ bv9 8)))
(assert (bvult x56 (_ bv9 8)))
(assert (bvult x58 (_ bv9 8)))
(assert (bvult x61 (_ bv9 8)))
(assert (bvult x63 (_ bv9 8)))
(assert (bvult x64 (_ bv9 8)))
(assert (bvult x66 (_ bv9 8)))
(assert (bvult x67 (_ bv9 8)))
(assert (bvult x68 (_ bv9 8)))
(assert (bvult x70 (_ bv9 8)))
(assert (bvult x72 (_ bv9 8)))
(assert (bvult x73 (_ bv9 8)))
(assert (bvult x75 (_ bv9 8)))
(assert (bvult x76 (_ bv9 8)))
(assert (bvult x78 (_ bv9 8)))
(assert (bvult x80 (_ bv9 8)))
(assert (bvult x82 (_ bv9 8)))
(assert (bvult x84 (_ bv9 8)))
(assert (bvult x88 (_ bv9 8)))
(assert (not (= (_ bv8 8) (_ bv6 8))))
(assert (not (= (_ bv8 8) x02)))
(assert (not (= (_ bv8 8) x03)))
(assert (not (= (_ bv8 8) (_ bv3 8))))
(assert (not (= (_ bv8 8) x05)))
(assert (not (= (_ bv8 8) (_ bv4 8))))
(assert (not (= (_ bv8 8) (_ bv2 8))))
(assert (not (= (_ bv8 8) x08)))
(assert (not (= (_ bv6 8) x02)))
(assert (not (= (_ bv6 8) x03)))
(assert (not (= (_ bv6 8) (_ bv3 8))))
(assert (not (= (_ bv6 8) x05)))
(assert (not (= (_ bv6 8) (_ bv4 8))))
(assert (not (= (_ bv6 8) (_ bv2 8))))
(assert (not (= (_ bv6 8) x08)))
(assert (not (= x02 x03)))
(assert (not (= x02 (_ bv3 8))))
(assert (not (= x02 x05)))
(assert (not (= x02 (_ bv4 8))))
(assert (not (= x02 (_ bv2 8))))
(assert (not (= x02 x08)))
(assert (not (= x03 (_ bv3 8))))
(assert (not (= x03 x05)))
(assert (not (= x03 (_ bv4 8))))
(assert (not (= x03 (_ bv2 8))))
(assert (not (= x03 x08)))
(assert (not (= (_ bv3 8) x05)))
(assert (not (= (_ bv3 8) (_ bv4 8))))
(assert (not (= (_ bv3 8) (_ bv2 8))))
(assert (not (= (_ bv3 8) x08)))
(assert (not (= x05 (_ bv4 8))))
(assert (not (= x05 (_ bv2 8))))
(assert (not (= x05 x08)))
(assert (not (= (_ bv4 8) (_ bv2 8))))
(assert (not (= (_ bv4 8) x08)))
(assert (not (= (_ bv2 8) x08)))
(assert (not (= x10 (_ bv9 8))))
(assert (not (= x10 x12)))
(assert (not (= x10 (_ bv4 8))))
(assert (not (= x10 x14)))
(assert (not (= x10 x15)))
(assert (not (= x10 x16)))
(assert (not (= x10 (_ bv5 8))))
(assert (not (= x10 (_ bv3 8))))
(assert (not (= (_ bv9 8) x12)))
(assert (not (= (_ bv9 8) (_ bv4 8))))
(assert (not (= (_ bv9 8) x14)))
(assert (not (= (_ bv9 8) x15)))
(assert (not (= (_ bv9 8) x16)))
(assert (not (= (_ bv9 8) (_ bv5 8))))
(assert (not (= (_ bv9 8) (_ bv3 8))))
(assert (not (= x12 (_ bv4 8))))
(assert (not (= x12 x14)))
(assert (not (= x12 x15)))
(assert (not (= x12 x16)))
(assert (not (= x12 (_ bv5 8))))
(assert (not (= x12 (_ bv3 8))))
(assert (not (= (_ bv4 8) x14)))
(assert (not (= (_ bv4 8) x15)))
(assert (not (= (_ bv4 8) x16)))
(assert (not (= (_ bv4 8) (_ bv5 8))))
(assert (not (= (_ bv4 8) (_ bv3 8))))
(assert (not (= x14 x15)))
(assert (not (= x14 x16)))
(assert (not (= x14 (_ bv5 8))))
(assert (not (= x14 (_ bv3 8))))
(assert (not (= x15 x16)))
(assert (not (= x15 (_ bv5 8))))
(assert (not (= x15 (_ bv3 8))))
(assert (not (= x16 (_ bv5 8))))
(assert (not (= x16 (_ bv3 8))))
(assert (not (= (_ bv5 8) (_ bv3 8))))
(assert (not (= (_ bv5 8) (_ bv3 8))))
(assert (not (= (_ bv5 8) x22)))
(assert (not (= (_ bv5 8) x23)))
(assert (not (= (_ bv5 8) x24)))
(assert (not (= (_ bv5 8) (_ bv7 8))))
(assert (not (= (_ bv5 8) (_ bv1 8))))
(assert (not (= (_ bv5 8) x27)))
(assert (not (= (_ bv5 8) x28)))
(assert (not (= (_ bv3 8) x22)))
(assert (not (= (_ bv3 8) x23)))
(assert (not (= (_ bv3 8) x24)))
(assert (not (= (_ bv3 8) (_ bv7 8))))
(assert (not (= (_ bv3 8) (_ bv1 8))))
(assert (not (= (_ bv3 8) x27)))
(assert (not (= (_ bv3 8) x28)))
(assert (not (= x22 x23)))
(assert (not (= x22 x24)))
(assert (not (= x22 (_ bv7 8))))
(assert (not (= x22 (_ bv1 8))))
(assert (not (= x22 x27)))
(assert (not (= x22 x28)))
(assert (not (= x23 x24)))
(assert (not (= x23 (_ bv7 8))))
(assert (not (= x23 (_ bv1 8))))
(assert (not (= x23 x27)))
(assert (not (= x23 x28)))
(assert (not (= x24 (_ bv7 8))))
(assert (not (= x24 (_ bv1 8))))
(assert (not (= x24 x27)))
(assert (not (= x24 x28)))
(assert (not (= (_ bv7 8) (_ bv1 8))))
(assert (not (= (_ bv7 8) x27)))
(assert (not (= (_ bv7 8) x28)))
(assert (not (= (_ bv1 8) x27)))
(assert (not (= (_ bv1 8) x28)))
(assert (not (= x27 x28)))
(assert (not (= x30 (_ bv4 8))))
(assert (not (= x30 x32)))
(assert (not (= x30 x33)))
(assert (not (= x30 x34)))
(assert (not (= x30 x35)))
(assert (not (= x30 (_ bv2 8))))
(assert (not (= x30 (_ bv7 8))))
(assert (not (= x30 x38)))
(assert (not (= (_ bv4 8) x32)))
(assert (not (= (_ bv4 8) x33)))
(assert (not (= (_ bv4 8) x34)))
(assert (not (= (_ bv4 8) x35)))
(assert (not (= (_ bv4 8) (_ bv2 8))))
(assert (not (= (_ bv4 8) (_ bv7 8))))
(assert (not (= (_ bv4 8) x38)))
(assert (not (= x32 x33)))
(assert (not (= x32 x34)))
(assert (not (= x32 x35)))
(assert (not (= x32 (_ bv2 8))))
(assert (not (= x32 (_ bv7 8))))
(assert (not (= x32 x38)))
(assert (not (= x33 x34)))
(assert (not (= x33 x35)))
(assert (not (= x33 (_ bv2 8))))
(assert (not (= x33 (_ bv7 8))))
(assert (not (= x33 x38)))
(assert (not (= x34 x35)))
(assert (not (= x34 (_ bv2 8))))
(assert (not (= x34 (_ bv7 8))))
(assert (not (= x34 x38)))
(assert (not (= x35 (_ bv2 8))))
(assert (not (= x35 (_ bv7 8))))
(assert (not (= x35 x38)))
(assert (not (= (_ bv2 8) (_ bv7 8))))
(assert (not (= (_ bv2 8) x38)))
(assert (not (= (_ bv7 8) x38)))
(assert (not (= x40 x41)))
(assert (not (= x40 x42)))
(assert (not (= x40 x43)))
(assert (not (= x40 x44)))
(assert (not (= x40 x45)))
(assert (not (= x40 x46)))
(assert (not (= x40 x47)))
(assert (not (= x40 (_ bv5 8))))
(assert (not (= x41 x42)))
(assert (not (= x41 x43)))
(assert (not (= x41 x44)))
(assert (not (= x41 x45)))
(assert (not (= x41 x46)))
(assert (not (= x41 x47)))
(assert (not (= x41 (_ bv5 8))))
(assert (not (= x42 x43)))
(assert (not (= x42 x44)))
(assert (not (= x42 x45)))
(assert (not (= x42 x46)))
(assert (not (= x42 x47)))
(assert (not (= x42 (_ bv5 8))))
(assert (not (= x43 x44)))
(assert (not (= x43 x45)))
(assert (not (= x43 x46)))
(assert (not (= x43 x47)))
(assert (not (= x43 (_ bv5 8))))
(assert (not (= x44 x45)))
(assert (not (= x44 x46)))
(assert (not (= x44 x47)))
(assert (not (= x44 (_ bv5 8))))
(assert (not (= x45 x46)))
(assert (not (= x45 x47)))
(assert (not (= x45 (_ bv5 8))))
(assert (not (= x46 x47)))
(assert (not (= x46 (_ bv5 8))))
(assert (not (= x47 (_ bv5 8))))
(assert (not (= (_ bv7 8) x51)))
(assert (not (= (_ bv7 8) (_ bv8 8))))
(assert (not (= (_ bv7 8) x53)))
(assert (not (= (_ bv7 8) (_ bv6 8))))
(assert (not (= (_ bv7 8) (_ bv1 8))))
(assert (not (= (_ bv7 8) x56)))
(assert (not (= (_ bv7 8) (_ bv4 8))))
(assert (not (= (_ bv7 8) x58)))
(assert (not (= x51 (_ bv8 8))))
(assert (not (= x51 x53)))
(assert (not (= x51 (_ bv6 8))))
(assert (not (= x51 (_ bv1 8))))
(assert (not (= x51 x56)))
(assert (not (= x51 (_ bv4 8))))
(assert (not (= x51 x58)))
(assert (not (= (_ bv8 8) x53)))
(assert (not (= (_ bv8 8) (_ bv6 8))))
(assert (not (= (_ bv8 8) (_ bv1 8))))
(assert (not (= (_ bv8 8) x56)))
(assert (not (= (_ bv8 8) (_ bv4 8))))
(assert (not (= (_ bv8 8) x58)))
(assert (not (= x53 (_ bv6 8))))
(assert (not (= x53 (_ bv1 8))))
(assert (not (= x53 x56)))
(assert (not (= x53 (_ bv4 8))))
(assert (not (= x53 x58)))
(assert (not (= (_ bv6 8) (_ bv1 8))))
(assert (not (= (_ bv6 8) x56)))
(assert (not (= (_ bv6 8) (_ bv4 8))))
(assert (not (= (_ bv6 8) x58)))
(assert (not (= (_ bv1 8) x56)))
(assert (not (= (_ bv1 8) (_ bv4 8))))
(assert (not (= (_ bv1 8) x58)))
(assert (not (= x56 (_ bv4 8))))
(assert (not (= x56 x58)))
(assert (not (= (_ bv4 8) x58)))
(assert (not (= (_ bv1 8) x61)))
(assert (not (= (_ bv1 8) (_ bv2 8))))
(assert (not (= (_ bv1 8) x63)))
(assert (not (= (_ bv1 8) x64)))
(assert (not (= (_ bv1 8) (_ bv9 8))))
(assert (not (= (_ bv1 8) x66)))
(assert (not (= (_ bv1 8) x67)))
(assert (not (= (_ bv1 8) x68)))
(assert (not (= x61 (_ bv2 8))))
(assert (not (= x61 x63)))
(assert (not (= x61 x64)))
(assert (not (= x61 (_ bv9 8))))
(assert (not (= x61 x66)))
(assert (not (= x61 x67)))
(assert (not (= x61 x68)))
(assert (not (= (_ bv2 8) x63)))
(assert (not (= (_ bv2 8) x64)))
(assert (not (= (_ bv2 8) (_ bv9 8))))
(assert (not (= (_ bv2 8) x66)))
(assert (not (= (_ bv2 8) x67)))
(assert (not (= (_ bv2 8) x68)))
(assert (not (= x63 x64)))
(assert (not (= x63 (_ bv9 8))))
(assert (not (= x63 x66)))
(assert (not (= x63 x67)))
(assert (not (= x63 x68)))
(assert (not (= x64 (_ bv9 8))))
(assert (not (= x64 x66)))
(assert (not (= x64 x67)))
(assert (not (= x64 x68)))
(assert (not (= (_ bv9 8) x66)))
(assert (not (= (_ bv9 8) x67)))
(assert (not (= (_ bv9 8) x68)))
(assert (not (= x66 x67)))
(assert (not (= x66 x68)))
(assert (not (= x67 x68)))
(assert (not (= x70 (_ bv5 8))))
(assert (not (= x70 x72)))
(assert (not (= x70 x73)))
(assert (not (= x70 (_ bv8 8))))
(assert (not (= x70 x75)))
(assert (not (= x70 x76)))
(assert (not (= x70 (_ bv6 8))))
(assert (not (= x70 x78)))
(assert (not (= (_ bv5 8) x72)))
(assert (not (= (_ bv5 8) x73)))
(assert (not (= (_ bv5 8) (_ bv8 8))))
(assert (not (= (_ bv5 8) x75)))
(assert (not (= (_ bv5 8) x76)))
(assert (not (= (_ bv5 8) (_ bv6 8))))
(assert (not (= (_ bv5 8) x78)))
(assert (not (= x72 x73)))
(assert (not (= x72 (_ bv8 8))))
(assert (not (= x72 x75)))
(assert (not (= x72 x76)))
(assert (not (= x72 (_ bv6 8))))
(assert (not (= x72 x78)))
(assert (not (= x73 (_ bv8 8))))
(assert (not (= x73 x75)))
(assert (not (= x73 x76)))
(assert (not (= x73 (_ bv6 8))))
(assert (not (= x73 x78)))
(assert (not (= (_ bv8 8) x75)))
(assert (not (= (_ bv8 8) x76)))
(assert (not (= (_ bv8 8) (_ bv6 8))))
(assert (not (= (_ bv8 8) x78)))
(assert (not (= x75 x76)))
(assert (not (= x75 (_ bv6 8))))
(assert (not (= x75 x78)))
(assert (not (= x76 (_ bv6 8))))
(assert (not (= x76 x78)))
(assert (not (= (_ bv6 8) x78)))
(assert (not (= x80 (_ bv7 8))))
(assert (not (= x80 x82)))
(assert (not (= x80 (_ bv2 8))))
(assert (not (= x80 x84)))
(assert (not (= x80 (_ bv4 8))))
(assert (not (= x80 (_ bv9 8))))
(assert (not (= x80 (_ bv1 8))))
(assert (not (= x80 x88)))
(assert (not (= (_ bv7 8) x82)))
(assert (not (= (_ bv7 8) (_ bv2 8))))
(assert (not (= (_ bv7 8) x84)))
(assert (not (= (_ bv7 8) (_ bv4 8))))
(assert (not (= (_ bv7 8) (_ bv9 8))))
(assert (not (= (_ bv7 8) (_ bv1 8))))
(assert (not (= (_ bv7 8) x88)))
(assert (not (= x82 (_ bv2 8))))
(assert (not (= x82 x84)))
(assert (not (= x82 (_ bv4 8))))
(assert (not (= x82 (_ bv9 8))))
(assert (not (= x82 (_ bv1 8))))
(assert (not (= x82 x88)))
(assert (not (= (_ bv2 8) x84)))
(assert (not (= (_ bv2 8) (_ bv4 8))))
(assert (not (= (_ bv2 8) (_ bv9 8))))
(assert (not (= (_ bv2 8) (_ bv1 8))))
(assert (not (= (_ bv2 8) x88)))
(assert (not (= x84 (_ bv4 8))))
(assert (not (= x84 (_ bv9 8))))
(assert (not (= x84 (_ bv1 8))))
(assert (not (= x84 x88)))
(assert (not (= (_ bv4 8) (_ bv9 8))))
(assert (not (= (_ bv4 8) (_ bv1 8))))
(assert (not (= (_ bv4 8) x88)))
(assert (not (= (_ bv9 8) (_ bv1 8))))
(assert (not (= (_ bv9 8) x88)))
(assert (not (= (_ bv1 8) x88)))
(assert (not (= (_ bv8 8) x10)))
(assert (not (= (_ bv8 8) (_ bv5 8))))
(assert (not (= (_ bv8 8) x30)))
(assert (not (= (_ bv8 8) x40)))
(assert (not (= (_ bv8 8) (_ bv7 8))))
(assert (not (= (_ bv8 8) (_ bv1 8))))
(assert (not (= (_ bv8 8) x70)))
(assert (not (= (_ bv8 8) x80)))
(assert (not (= x10 (_ bv5 8))))
(assert (not (= x10 x30)))
(assert (not (= x10 x40)))
(assert (not (= x10 (_ bv7 8))))
(assert (not (= x10 (_ bv1 8))))
(assert (not (= x10 x70)))
(assert (not (= x10 x80)))
(assert (not (= (_ bv5 8) x30)))
(assert (not (= (_ bv5 8) x40)))
(assert (not (= (_ bv5 8) (_ bv7 8))))
(assert (not (= (_ bv5 8) (_ bv1 8))))
(assert (not (= (_ bv5 8) x70)))
(assert (not (= (_ bv5 8) x80)))
(assert (not (= x30 x40)))
(assert (not (= x30 (_ bv7 8))))
(assert (not (= x30 (_ bv1 8))))
(assert (not (= x30 x70)))
(assert (not (= x30 x80)))
(assert (not (= x40 (_ bv7 8))))
(assert (not (= x40 (_ bv1 8))))
(assert (not (= x40 x70)))
(assert (not (= x40 x80)))
(assert (not (= (_ bv7 8) (_ bv1 8))))
(assert (not (= (_ bv7 8) x70)))
(assert (not (= (_ bv7 8) x80)))
(assert (not (= (_ bv1 8) x70)))
(assert (not (= (_ bv1 8) x80)))
(assert (not (= x70 x80)))
(assert (not (= (_ bv6 8) (_ bv9 8))))
(assert (not (= (_ bv6 8) (_ bv3 8))))
(assert (not (= (_ bv6 8) (_ bv4 8))))
(assert (not (= (_ bv6 8) x41)))
(assert (not (= (_ bv6 8) x51)))
(assert (not (= (_ bv6 8) x61)))
(assert (not (= (_ bv6 8) (_ bv5 8))))
(assert (not (= (_ bv6 8) (_ bv7 8))))
(assert (not (= (_ bv9 8) (_ bv3 8))))
(assert (not (= (_ bv9 8) (_ bv4 8))))
(assert (not (= (_ bv9 8) x41)))
(assert (not (= (_ bv9 8) x51)))
(assert (not (= (_ bv9 8) x61)))
(assert (not (= (_ bv9 8) (_ bv5 8))))
(assert (not (= (_ bv9 8) (_ bv7 8))))
(assert (not (= (_ bv3 8) (_ bv4 8))))
(assert (not (= (_ bv3 8) x41)))
(assert (not (= (_ bv3 8) x51)))
(assert (not (= (_ bv3 8) x61)))
(assert (not (= (_ bv3 8) (_ bv5 8))))
(assert (not (= (_ bv3 8) (_ bv7 8))))
(assert (not (= (_ bv4 8) x41)))
(assert (not (= (_ bv4 8) x51)))
(assert (not (= (_ bv4 8) x61)))
(assert (not (= (_ bv4 8) (_ bv5 8))))
(assert (not (= (_ bv4 8) (_ bv7 8))))
(assert (not (= x41 x51)))
(assert (not (= x41 x61)))
(assert (not (= x41 (_ bv5 8))))
(assert (not (= x41 (_ bv7 8))))
(assert (not (= x51 x61)))
(assert (not (= x51 (_ bv5 8))))
(assert (not (= x51 (_ bv7 8))))
(assert (not (= x61 (_ bv5 8))))
(assert (not (= x61 (_ bv7 8))))
(assert (not (= (_ bv5 8) (_ bv7 8))))
(assert (not (= x02 x12)))
(assert (not (= x02 x22)))
(assert (not (= x02 x32)))
(assert (not (= x02 x42)))
(assert (not (= x02 (_ bv8 8))))
(assert (not (= x02 (_ bv2 8))))
(assert (not (= x02 x72)))
(assert (not (= x02 x82)))
(assert (not (= x12 x22)))
(assert (not (= x12 x32)))
(assert (not (= x12 x42)))
(assert (not (= x12 (_ bv8 8))))
(assert (not (= x12 (_ bv2 8))))
(assert (not (= x12 x72)))
(assert (not (= x12 x82)))
(assert (not (= x22 x32)))
(assert (not (= x22 x42)))
(assert (not (= x22 (_ bv8 8))))
(assert (not (= x22 (_ bv2 8))))
(assert (not (= x22 x72)))
(assert (not (= x22 x82)))
(assert (not (= x32 x42)))
(assert (not (= x32 (_ bv8 8))))
(assert (not (= x32 (_ bv2 8))))
(assert (not (= x32 x72)))
(assert (not (= x32 x82)))
(assert (not (= x42 (_ bv8 8))))
(assert (not (= x42 (_ bv2 8))))
(assert (not (= x42 x72)))
(assert (not (= x42 x82)))
(assert (not (= (_ bv8 8) (_ bv2 8))))
(assert (not (= (_ bv8 8) x72)))
(assert (not (= (_ bv8 8) x82)))
(assert (not (= (_ bv2 8) x72)))
(assert (not (= (_ bv2 8) x82)))
(assert (not (= x72 x82)))
(assert (not (= x03 (_ bv4 8))))
(assert (not (= x03 x23)))
(assert (not (= x03 x33)))
(assert (not (= x03 x43)))
(assert (not (= x03 x53)))
(assert (not (= x03 x63)))
(assert (not (= x03 x73)))
(assert (not (= x03 (_ bv2 8))))
(assert (not (= (_ bv4 8) x23)))
(assert (not (= (_ bv4 8) x33)))
(assert (not (= (_ bv4 8) x43)))
(assert (not (= (_ bv4 8) x53)))
(assert (not (= (_ bv4 8) x63)))
(assert (not (= (_ bv4 8) x73)))
(assert (not (= (_ bv4 8) (_ bv2 8))))
(assert (not (= x23 x33)))
(assert (not (= x23 x43)))
(assert (not (= x23 x53)))
(assert (not (= x23 x63)))
(assert (not (= x23 x73)))
(assert (not (= x23 (_ bv2 8))))
(assert (not (= x33 x43)))
(assert (not (= x33 x53)))
(assert (not (= x33 x63)))
(assert (not (= x33 x73)))
(assert (not (= x33 (_ bv2 8))))
(assert (not (= x43 x53)))
(assert (not (= x43 x63)))
(assert (not (= x43 x73)))
(assert (not (= x43 (_ bv2 8))))
(assert (not (= x53 x63)))
(assert (not (= x53 x73)))
(assert (not (= x53 (_ bv2 8))))
(assert (not (= x63 x73)))
(assert (not (= x63 (_ bv2 8))))
(assert (not (= x73 (_ bv2 8))))
(assert (not (= (_ bv3 8) x14)))
(assert (not (= (_ bv3 8) x24)))
(assert (not (= (_ bv3 8) x34)))
(assert (not (= (_ bv3 8) x44)))
(assert (not (= (_ bv3 8) (_ bv6 8))))
(assert (not (= (_ bv3 8) x64)))
(assert (not (= (_ bv3 8) (_ bv8 8))))
(assert (not (= (_ bv3 8) x84)))
(assert (not (= x14 x24)))
(assert (not (= x14 x34)))
(assert (not (= x14 x44)))
(assert (not (= x14 (_ bv6 8))))
(assert (not (= x14 x64)))
(assert (not (= x14 (_ bv8 8))))
(assert (not (= x14 x84)))
(assert (not (= x24 x34)))
(assert (not (= x24 x44)))
(assert (not (= x24 (_ bv6 8))))
(assert (not (= x24 x64)))
(assert (not (= x24 (_ bv8 8))))
(assert (not (= x24 x84)))
(assert (not (= x34 x44)))
(assert (not (= x34 (_ bv6 8))))
(assert (not (= x34 x64)))
(assert (not (= x34 (_ bv8 8))))
(assert (not (= x34 x84)))
(assert (not (= x44 (_ bv6 8))))
(assert (not (= x44 x64)))
(assert (not (= x44 (_ bv8 8))))
(assert (not (= x44 x84)))
(assert (not (= (_ bv6 8) x64)))
(assert (not (= (_ bv6 8) (_ bv8 8))))
(assert (not (= (_ bv6 8) x84)))
(assert (not (= x64 (_ bv8 8))))
(assert (not (= x64 x84)))
(assert (not (= (_ bv8 8) x84)))
(assert (not (= x05 x15)))
(assert (not (= x05 (_ bv7 8))))
(assert (not (= x05 x35)))
(assert (not (= x05 x45)))
(assert (not (= x05 (_ bv1 8))))
(assert (not (= x05 (_ bv9 8))))
(assert (not (= x05 x75)))
(assert (not (= x05 (_ bv4 8))))
(assert (not (= x15 (_ bv7 8))))
(assert (not (= x15 x35)))
(assert (not (= x15 x45)))
(assert (not (= x15 (_ bv1 8))))
(assert (not (= x15 (_ bv9 8))))
(assert (not (= x15 x75)))
(assert (not (= x15 (_ bv4 8))))
(assert (not (= (_ bv7 8) x35)))
(assert (not (= (_ bv7 8) x45)))
(assert (not (= (_ bv7 8) (_ bv1 8))))
(assert (not (= (_ bv7 8) (_ bv9 8))))
(assert (not (= (_ bv7 8) x75)))
(assert (not (= (_ bv7 8) (_ bv4 8))))
(assert (not (= x35 x45)))
(assert (not (= x35 (_ bv1 8))))
(assert (not (= x35 (_ bv9 8))))
(assert (not (= x35 x75)))
(assert (not (= x35 (_ bv4 8))))
(assert (not (= x45 (_ bv1 8))))
(assert (not (= x45 (_ bv9 8))))
(assert (not (= x45 x75)))
(assert (not (= x45 (_ bv4 8))))
(assert (not (= (_ bv1 8) (_ bv9 8))))
(assert (not (= (_ bv1 8) x75)))
(assert (not (= (_ bv1 8) (_ bv4 8))))
(assert (not (= (_ bv9 8) x75)))
(assert (not (= (_ bv9 8) (_ bv4 8))))
(assert (not (= x75 (_ bv4 8))))
(assert (not (= (_ bv4 8) x16)))
(assert (not (= (_ bv4 8) (_ bv1 8))))
(assert (not (= (_ bv4 8) (_ bv2 8))))
(assert (not (= (_ bv4 8) x46)))
(assert (not (= (_ bv4 8) x56)))
(assert (not (= (_ bv4 8) x66)))
(assert (not (= (_ bv4 8) x76)))
(assert (not (= (_ bv4 8) (_ bv9 8))))
(assert (not (= x16 (_ bv1 8))))
(assert (not (= x16 (_ bv2 8))))
(assert (not (= x16 x46)))
(assert (not (= x16 x56)))
(assert (not (= x16 x66)))
(assert (not (= x16 x76)))
(assert (not (= x16 (_ bv9 8))))
(assert (not (= (_ bv1 8) (_ bv2 8))))
(assert (not (= (_ bv1 8) x46)))
(assert (not (= (_ bv1 8) x56)))
(assert (not (= (_ bv1 8) x66)))
(assert (not (= (_ bv1 8) x76)))
(assert (not (= (_ bv1 8) (_ bv9 8))))
(assert (not (= (_ bv2 8) x46)))
(assert (not (= (_ bv2 8) x56)))
(assert (not (= (_ bv2 8) x66)))
(assert (not (= (_ bv2 8) x76)))
(assert (not (= (_ bv2 8) (_ bv9 8))))
(assert (not (= x46 x56)))
(assert (not (= x46 x66)))
(assert (not (= x46 x76)))
(assert (not (= x46 (_ bv9 8))))
(assert (not (= x56 x66)))
(assert (not (= x56 x76)))
(assert (not (= x56 (_ bv9 8))))
(assert (not (= x66 x76)))
(assert (not (= x66 (_ bv9 8))))
(assert (not (= x76 (_ bv9 8))))
(assert (not (= (_ bv2 8) (_ bv5 8))))
(assert (not (= (_ bv2 8) x27)))
(assert (not (= (_ bv2 8) (_ bv7 8))))
(assert (not (= (_ bv2 8) x47)))
(assert (not (= (_ bv2 8) (_ bv4 8))))
(assert (not (= (_ bv2 8) x67)))
(assert (not (= (_ bv2 8) (_ bv6 8))))
(assert (not (= (_ bv2 8) (_ bv1 8))))
(assert (not (= (_ bv5 8) x27)))
(assert (not (= (_ bv5 8) (_ bv7 8))))
(assert (not (= (_ bv5 8) x47)))
(assert (not (= (_ bv5 8) (_ bv4 8))))
(assert (not (= (_ bv5 8) x67)))
(assert (not (= (_ bv5 8) (_ bv6 8))))
(assert (not (= (_ bv5 8) (_ bv1 8))))
(assert (not (= x27 (_ bv7 8))))
(assert (not (= x27 x47)))
(assert (not (= x27 (_ bv4 8))))
(assert (not (= x27 x67)))
(assert (not (= x27 (_ bv6 8))))
(assert (not (= x27 (_ bv1 8))))
(assert (not (= (_ bv7 8) x47)))
(assert (not (= (_ bv7 8) (_ bv4 8))))
(assert (not (= (_ bv7 8) x67)))
(assert (not (= (_ bv7 8) (_ bv6 8))))
(assert (not (= (_ bv7 8) (_ bv1 8))))
(assert (not (= x47 (_ bv4 8))))
(assert (not (= x47 x67)))
(assert (not (= x47 (_ bv6 8))))
(assert (not (= x47 (_ bv1 8))))
(assert (not (= (_ bv4 8) x67)))
(assert (not (= (_ bv4 8) (_ bv6 8))))
(assert (not (= (_ bv4 8) (_ bv1 8))))
(assert (not (= x67 (_ bv6 8))))
(assert (not (= x67 (_ bv1 8))))
(assert (not (= (_ bv6 8) (_ bv1 8))))
(assert (not (= x08 (_ bv3 8))))
(assert (not (= x08 x28)))
(assert (not (= x08 x38)))
(assert (not (= x08 (_ bv5 8))))
(assert (not (= x08 x58)))
(assert (not (= x08 x68)))
(assert (not (= x08 x78)))
(assert (not (= x08 x88)))
(assert (not (= (_ bv3 8) x28)))
(assert (not (= (_ bv3 8) x38)))
(assert (not (= (_ bv3 8) (_ bv5 8))))
(assert (not (= (_ bv3 8) x58)))
(assert (not (= (_ bv3 8) x68)))
(assert (not (= (_ bv3 8) x78)))
(assert (not (= (_ bv3 8) x88)))
(assert (not (= x28 x38)))
(assert (not (= x28 (_ bv5 8))))
(assert (not (= x28 x58)))
(assert (not (= x28 x68)))
(assert (not (= x28 x78)))
(assert (not (= x28 x88)))
(assert (not (= x38 (_ bv5 8))))
(assert (not (= x38 x58)))
(assert (not (= x38 x68)))
(assert (not (= x38 x78)))
(assert (not (= x38 x88)))
(assert (not (= (_ bv5 8) x58)))
(assert (not (= (_ bv5 8) x68)))
(assert (not (= (_ bv5 8) x78)))
(assert (not (= (_ bv5 8) x88)))
(assert (not (= x58 x68)))
(assert (not (= x58 x78)))
(assert (not (= x58 x88)))
(assert (not (= x68 x78)))
(assert (not (= x68 x88)))
(assert (not (= x78 x88)))
(assert (not (= (_ bv8 8) (_ bv6 8))))
(assert (not (= (_ bv8 8) x02)))
(assert (not (= (_ bv8 8) x10)))
(assert (not (= (_ bv8 8) (_ bv9 8))))
(assert (not (= (_ bv8 8) x12)))
(assert (not (= (_ bv8 8) (_ bv5 8))))
(assert (not (= (_ bv8 8) (_ bv3 8))))
(assert (not (= (_ bv8 8) x22)))
(assert (not (= (_ bv6 8) x02)))
(assert (not (= (_ bv6 8) x10)))
(assert (not (= (_ bv6 8) (_ bv9 8))))
(assert (not (= (_ bv6 8) x12)))
(assert (not (= (_ bv6 8) (_ bv5 8))))
(assert (not (= (_ bv6 8) (_ bv3 8))))
(assert (not (= (_ bv6 8) x22)))
(assert (not (= x02 x10)))
(assert (not (= x02 (_ bv9 8))))
(assert (not (= x02 x12)))
(assert (not (= x02 (_ bv5 8))))
(assert (not (= x02 (_ bv3 8))))
(assert (not (= x02 x22)))
(assert (not (= x10 (_ bv9 8))))
(assert (not (= x10 x12)))
(assert (not (= x10 (_ bv5 8))))
(assert (not (= x10 (_ bv3 8))))
(assert (not (= x10 x22)))
(assert (not (= (_ bv9 8) x12)))
(assert (not (= (_ bv9 8) (_ bv5 8))))
(assert (not (= (_ bv9 8) (_ bv3 8))))
(assert (not (= (_ bv9 8) x22)))
(assert (not (= x12 (_ bv5 8))))
(assert (not (= x12 (_ bv3 8))))
(assert (not (= x12 x22)))
(assert (not (= (_ bv5 8) (_ bv3 8))))
(assert (not (= (_ bv5 8) x22)))
(assert (not (= (_ bv3 8) x22)))
(assert (not (= x03 (_ bv3 8))))
(assert (not (= x03 x05)))
(assert (not (= x03 (_ bv4 8))))
(assert (not (= x03 x14)))
(assert (not (= x03 x15)))
(assert (not (= x03 x23)))
(assert (not (= x03 x24)))
(assert (not (= x03 (_ bv7 8))))
(assert (not (= (_ bv3 8) x05)))
(assert (not (= (_ bv3 8) (_ bv4 8))))
(assert (not (= (_ bv3 8) x14)))
(assert (not (= (_ bv3 8) x15)))
(assert (not (= (_ bv3 8) x23)))
(assert (not (= (_ bv3 8) x24)))
(assert (not (= (_ bv3 8) (_ bv7 8))))
(assert (not (= x05 (_ bv4 8))))
(assert (not (= x05 x14)))
(assert (not (= x05 x15)))
(assert (not (= x05 x23)))
(assert (not (= x05 x24)))
(assert (not (= x05 (_ bv7 8))))
(assert (not (= (_ bv4 8) x14)))
(assert (not (= (_ bv4 8) x15)))
(assert (not (= (_ bv4 8) x23)))
(assert (not (= (_ bv4 8) x24)))
(assert (not (= (_ bv4 8) (_ bv7 8))))
(assert (not (= x14 x15)))
(assert (not (= x14 x23)))
(assert (not (= x14 x24)))
(assert (not (= x14 (_ bv7 8))))
(assert (not (= x15 x23)))
(assert (not (= x15 x24)))
(assert (not (= x15 (_ bv7 8))))
(assert (not (= x23 x24)))
(assert (not (= x23 (_ bv7 8))))
(assert (not (= x24 (_ bv7 8))))
(assert (not (= (_ bv4 8) (_ bv2 8))))
(assert (not (= (_ bv4 8) x08)))
(assert (not (= (_ bv4 8) x16)))
(assert (not (= (_ bv4 8) (_ bv5 8))))
(assert (not (= (_ bv4 8) (_ bv3 8))))
(assert (not (= (_ bv4 8) (_ bv1 8))))
(assert (not (= (_ bv4 8) x27)))
(assert (not (= (_ bv4 8) x28)))
(assert (not (= (_ bv2 8) x08)))
(assert (not (= (_ bv2 8) x16)))
(assert (not (= (_ bv2 8) (_ bv5 8))))
(assert (not (= (_ bv2 8) (_ bv3 8))))
(assert (not (= (_ bv2 8) (_ bv1 8))))
(assert (not (= (_ bv2 8) x27)))
(assert (not (= (_ bv2 8) x28)))
(assert (not (= x08 x16)))
(assert (not (= x08 (_ bv5 8))))
(assert (not (= x08 (_ bv3 8))))
(assert (not (= x08 (_ bv1 8))))
(assert (not (= x08 x27)))
(assert (not (= x08 x28)))
(assert (not (= x16 (_ bv5 8))))
(assert (not (= x16 (_ bv3 8))))
(assert (not (= x16 (_ bv1 8))))
(assert (not (= x16 x27)))
(assert (not (= x16 x28)))
(assert (not (= (_ bv5 8) (_ bv3 8))))
(assert (not (= (_ bv5 8) (_ bv1 8))))
(assert (not (= (_ bv5 8) x27)))
(assert (not (= (_ bv5 8) x28)))
(assert (not (= (_ bv3 8) (_ bv1 8))))
(assert (not (= (_ bv3 8) x27)))
(assert (not (= (_ bv3 8) x28)))
(assert (not (= (_ bv1 8) x27)))
(assert (not (= (_ bv1 8) x28)))
(assert (not (= x27 x28)))
(assert (not (= x30 (_ bv4 8))))
(assert (not (= x30 x32)))
(assert (not (= x30 x40)))
(assert (not (= x30 x41)))
(assert (not (= x30 x42)))
(assert (not (= x30 (_ bv7 8))))
(assert (not (= x30 x51)))
(assert (not (= x30 (_ bv8 8))))
(assert (not (= (_ bv4 8) x32)))
(assert (not (= (_ bv4 8) x40)))
(assert (not (= (_ bv4 8) x41)))
(assert (not (= (_ bv4 8) x42)))
(assert (not (= (_ bv4 8) (_ bv7 8))))
(assert (not (= (_ bv4 8) x51)))
(assert (not (= (_ bv4 8) (_ bv8 8))))
(assert (not (= x32 x40)))
(assert (not (= x32 x41)))
(assert (not (= x32 x42)))
(assert (not (= x32 (_ bv7 8))))
(assert (not (= x32 x51)))
(assert (not (= x32 (_ bv8 8))))
(assert (not (= x40 x41)))
(assert (not (= x40 x42)))
(assert (not (= x40 (_ bv7 8))))
(assert (not (= x40 x51)))
(assert (not (= x40 (_ bv8 8))))
(assert (not (= x41 x42)))
(assert (not (= x41 (_ bv7 8))))
(assert (not (= x41 x51)))
(assert (not (= x41 (_ bv8 8))))
(assert (not (= x42 (_ bv7 8))))
(assert (not (= x42 x51)))
(assert (not (= x42 (_ bv8 8))))
(assert (not (= (_ bv7 8) x51)))
(assert (not (= (_ bv7 8) (_ bv8 8))))
(assert (not (= x51 (_ bv8 8))))
(assert (not (= x33 x34)))
(assert (not (= x33 x35)))
(assert (not (= x33 x43)))
(assert (not (= x33 x44)))
(assert (not (= x33 x45)))
(assert (not (= x33 x53)))
(assert (not (= x33 (_ bv6 8))))
(assert (not (= x33 (_ bv1 8))))
(assert (not (= x34 x35)))
(assert (not (= x34 x43)))
(assert (not (= x34 x44)))
(assert (not (= x34 x45)))
(assert (not (= x34 x53)))
(assert (not (= x34 (_ bv6 8))))
(assert (not (= x34 (_ bv1 8))))
(assert (not (= x35 x43)))
(assert (not (= x35 x44)))
(assert (not (= x35 x45)))
(assert (not (= x35 x53)))
(assert (not (= x35 (_ bv6 8))))
(assert (not (= x35 (_ bv1 8))))
(assert (not (= x43 x44)))
(assert (not (= x43 x45)))
(assert (not (= x43 x53)))
(assert (not (= x43 (_ bv6 8))))
(assert (not (= x43 (_ bv1 8))))
(assert (not (= x44 x45)))
(assert (not (= x44 x53)))
(assert (not (= x44 (_ bv6 8))))
(assert (not (= x44 (_ bv1 8))))
(assert (not (= x45 x53)))
(assert (not (= x45 (_ bv6 8))))
(assert (not (= x45 (_ bv1 8))))
(assert (not (= x53 (_ bv6 8))))
(assert (not (= x53 (_ bv1 8))))
(assert (not (= (_ bv6 8) (_ bv1 8))))
(assert (not (= (_ bv2 8) (_ bv7 8))))
(assert (not (= (_ bv2 8) x38)))
(assert (not (= (_ bv2 8) x46)))
(assert (not (= (_ bv2 8) x47)))
(assert (not (= (_ bv2 8) (_ bv5 8))))
(assert (not (= (_ bv2 8) x56)))
(assert (not (= (_ bv2 8) (_ bv4 8))))
(assert (not (= (_ bv2 8) x58)))
(assert (not (= (_ bv7 8) x38)))
(assert (not (= (_ bv7 8) x46)))
(assert (not (= (_ bv7 8) x47)))
(assert (not (= (_ bv7 8) (_ bv5 8))))
(assert (not (= (_ bv7 8) x56)))
(assert (not (= (_ bv7 8) (_ bv4 8))))
(assert (not (= (_ bv7 8) x58)))
(assert (not (= x38 x46)))
(assert (not (= x38 x47)))
(assert (not (= x38 (_ bv5 8))))
(assert (not (= x38 x56)))
(assert (not (= x38 (_ bv4 8))))
(assert (not (= x38 x58)))
(assert (not (= x46 x47)))
(assert (not (= x46 (_ bv5 8))))
(assert (not (= x46 x56)))
(assert (not (= x46 (_ bv4 8))))
(assert (not (= x46 x58)))
(assert (not (= x47 (_ bv5 8))))
(assert (not (= x47 x56)))
(assert (not (= x47 (_ bv4 8))))
(assert (not (= x47 x58)))
(assert (not (= (_ bv5 8) x56)))
(assert (not (= (_ bv5 8) (_ bv4 8))))
(assert (not (= (_ bv5 8) x58)))
(assert (not (= x56 (_ bv4 8))))
(assert (not (= x56 x58)))
(assert (not (= (_ bv4 8) x58)))
(assert (not (= (_ bv1 8) x61)))
(assert (not (= (_ bv1 8) (_ bv2 8))))
(assert (not (= (_ bv1 8) x70)))
(assert (not (= (_ bv1 8) (_ bv5 8))))
(assert (not (= (_ bv1 8) x72)))
(assert (not (= (_ bv1 8) x80)))
(assert (not (= (_ bv1 8) (_ bv7 8))))
(assert (not (= (_ bv1 8) x82)))
(assert (not (= x61 (_ bv2 8))))
(assert (not (= x61 x70)))
(assert (not (= x61 (_ bv5 8))))
(assert (not (= x61 x72)))
(assert (not (= x61 x80)))
(assert (not (= x61 (_ bv7 8))))
(assert (not (= x61 x82)))
(assert (not (= (_ bv2 8) x70)))
(assert (not (= (_ bv2 8) (_ bv5 8))))
(assert (not (= (_ bv2 8) x72)))
(assert (not (= (_ bv2 8) x80)))
(assert (not (= (_ bv2 8) (_ bv7 8))))
(assert (not (= (_ bv2 8) x82)))
(assert (not (= x70 (_ bv5 8))))
(assert (not (= x70 x72)))
(assert (not (= x70 x80)))
(assert (not (= x70 (_ bv7 8))))
(assert (not (= x70 x82)))
(assert (not (= (_ bv5 8) x72)))
(assert (not (= (_ bv5 8) x80)))
(assert (not (= (_ bv5 8) (_ bv7 8))))
(assert (not (= (_ bv5 8) x82)))
(assert (not (= x72 x80)))
(assert (not (= x72 (_ bv7 8))))
(assert (not (= x72 x82)))
(assert (not (= x80 (_ bv7 8))))
(assert (not (= x80 x82)))
(assert (not (= (_ bv7 8) x82)))
(assert (not (= x63 x64)))
(assert (not (= x63 (_ bv9 8))))
(assert (not (= x63 x73)))
(assert (not (= x63 (_ bv8 8))))
(assert (not (= x63 x75)))
(assert (not (= x63 (_ bv2 8))))
(assert (not (= x63 x84)))
(assert (not (= x63 (_ bv4 8))))
(assert (not (= x64 (_ bv9 8))))
(assert (not (= x64 x73)))
(assert (not (= x64 (_ bv8 8))))
(assert (not (= x64 x75)))
(assert (not (= x64 (_ bv2 8))))
(assert (not (= x64 x84)))
(assert (not (= x64 (_ bv4 8))))
(assert (not (= (_ bv9 8) x73)))
(assert (not (= (_ bv9 8) (_ bv8 8))))
(assert (not (= (_ bv9 8) x75)))
(assert (not (= (_ bv9 8) (_ bv2 8))))
(assert (not (= (_ bv9 8) x84)))
(assert (not (= (_ bv9 8) (_ bv4 8))))
(assert (not (= x73 (_ bv8 8))))
(assert (not (= x73 x75)))
(assert (not (= x73 (_ bv2 8))))
(assert (not (= x73 x84)))
(assert (not (= x73 (_ bv4 8))))
(assert (not (= (_ bv8 8) x75)))
(assert (not (= (_ bv8 8) (_ bv2 8))))
(assert (not (= (_ bv8 8) x84)))
(assert (not (= (_ bv8 8) (_ bv4 8))))
(assert (not (= x75 (_ bv2 8))))
(assert (not (= x75 x84)))
(assert (not (= x75 (_ bv4 8))))
(assert (not (= (_ bv2 8) x84)))
(assert (not (= (_ bv2 8) (_ bv4 8))))
(assert (not (= x84 (_ bv4 8))))
(assert (not (= x66 x67)))
(assert (not (= x66 x68)))
(assert (not (= x66 x76)))
(assert (not (= x66 (_ bv6 8))))
(assert (not (= x66 x78)))
(assert (not (= x66 (_ bv9 8))))
(assert (not (= x66 (_ bv1 8))))
(assert (not (= x66 x88)))
(assert (not (= x67 x68)))
(assert (not (= x67 x76)))
(assert (not (= x67 (_ bv6 8))))
(assert (not (= x67 x78)))
(assert (not (= x67 (_ bv9 8))))
(assert (not (= x67 (_ bv1 8))))
(assert (not (= x67 x88)))
(assert (not (= x68 x76)))
(assert (not (= x68 (_ bv6 8))))
(assert (not (= x68 x78)))
(assert (not (= x68 (_ bv9 8))))
(assert (not (= x68 (_ bv1 8))))
(assert (not (= x68 x88)))
(assert (not (= x76 (_ bv6 8))))
(assert (not (= x76 x78)))
(assert (not (= x76 (_ bv9 8))))
(assert (not (= x76 (_ bv1 8))))
(assert (not (= x76 x88)))
(assert (not (= (_ bv6 8) x78)))
(assert (not (= (_ bv6 8) (_ bv9 8))))
(assert (not (= (_ bv6 8) (_ bv1 8))))
(assert (not (= (_ bv6 8) x88)))
(assert (not (= x78 (_ bv9 8))))
(assert (not (= x78 (_ bv1 8))))
(assert (not (= x78 x88)))
(assert (not (= (_ bv9 8) (_ bv1 8))))
(assert (not (= (_ bv9 8) x88)))
(assert (not (= (_ bv1 8) x88)))
(check-sat)
(exit)
